sat
(
  (define-fun MemProv6 () Int
    7500)
  (define-fun C2_VM2 () Int
    1)
  (define-fun C1_VM3 () Int
    0)
  (define-fun StorageProv5 () Int
    2000)
  (define-fun MemProv2 () Int
    7500)
  (define-fun C4_VM3 () Int
    0)
  (define-fun VM4Type () Int
    26)
  (define-fun C3_VM4 () Int
    0)
  (define-fun C5_VM1 () Int
    1)
  (define-fun PriceProv4 () Int
    252)
  (define-fun C3_VM2 () Int
    0)
  (define-fun C1_VM4 () Int
    1)
  (define-fun C2_VM4 () Int
    0)
  (define-fun MemProv4 () Int
    7500)
  (define-fun C1_VM2 () Int
    0)
  (define-fun StorageProv4 () Int
    2000)
  (define-fun C4_VM2 () Int
    0)
  (define-fun C2_VM5 () Int
    0)
  (define-fun C2_VM1 () Int
    1)
  (define-fun StorageProv1 () Int
    2000)
  (define-fun VM1Type () Int
    26)
  (define-fun C4_VM6 () Int
    0)
  (define-fun C3_VM1 () Int
    0)
  (define-fun MemProv5 () Int
    68400)
  (define-fun VM5Type () Int
    22)
  (define-fun PriceProv6 () Int
    252)
  (define-fun MemProv1 () Int
    7500)
  (define-fun VM2Type () Int
    27)
  (define-fun C4_VM4 () Int
    0)
  (define-fun ProcProv6 () Int
    4)
  (define-fun PriceProv1 () Int
    252)
  (define-fun StorageProv6 () Int
    2000)
  (define-fun ProcProv3 () Int
    8)
  (define-fun ProcProv4 () Int
    4)
  (define-fun VM3Type () Int
    21)
  (define-fun PriceProv2 () Int
    252)
  (define-fun C3_VM6 () Int
    0)
  (define-fun C3_VM3 () Int
    1)
  (define-fun C5_VM4 () Int
    0)
  (define-fun C1_VM6 () Int
    0)
  (define-fun VM6Type () Int
    27)
  (define-fun ProcProv5 () Int
    8)
  (define-fun C2_VM6 () Int
    1)
  (define-fun PriceProv3 () Int
    632)
  (define-fun C5_VM6 () Int
    1)
  (define-fun ProcProv2 () Int
    4)
  (define-fun C2_VM3 () Int
    0)
  (define-fun C4_VM5 () Int
    1)
  (define-fun C5_VM3 () Int
    1)
  (define-fun C3_VM5 () Int
    0)
  (define-fun C5_VM2 () Int
    1)
  (define-fun C4_VM1 () Int
    0)
  (define-fun StorageProv3 () Int
    4000)
  (define-fun ProcProv1 () Int
    4)
  (define-fun MemProv3 () Int
    7000)
  (define-fun StorageProv2 () Int
    2000)
  (define-fun C5_VM5 () Int
    0)
  (define-fun PriceProv5 () Int
    1288)
  (define-fun C1_VM5 () Int
    0)
  (define-fun C1_VM1 () Int
    0)
)
(objectives
 ( 422)
 ((+ 0 PriceProv1 PriceProv2 PriceProv3 PriceProv4 PriceProv5 PriceProv6) 2928)
)
(:added-eqs                   815649
 :arith-eq-adapter            430072
 :arith-bound-propagations-lp 26384
 :arith-conflicts             112
 :arith-diseq                 1303600
 :arith-fixed-eqs             11820
 :arith-lower                 1132499
 :arith-make-feasible         198770
 :arith-max-columns           147
 :arith-max-rows              20
 :arith-upper                 1672995
 :binary-propagations         7195497
 :conflicts                   21217
 :decisions                   369069
 :del-clause                  1164793
 :final-checks                964
 :max-memory                  52.58
 :maxsat-cores                386
 :memory                      52.34
 :minimized-lits              140585
 :mk-bool-var                 540130
 :mk-clause                   1166695
 :mk-clause-binary            5470
 :num-allocs                  25797462772.00
 :num-checks                  1503
 :pb-conflicts                4897
 :pb-predicates               474
 :pb-propagations             54196
 :pb-resolves                 4891
 :propagations                12080901
 :restarts                    62
 :rlimit-count                55419702
 :solve-eqs-elim-vars         1
 :solve-eqs-steps             10
 :time                        3.34
 :total-time                  3.35)
